data/mip_solutions/furman_sahinidis/transshipment/8sp1_cplex.sol
Elapsed time: 0.0332539081573
Nodes explored: 65
Upper bound: 9.0
Lower bound: 9.0
y[0,0]=1
y[0,1]=1
y[1,0]=1
y[1,2]=1
y[2,1]=1
y[2,3]=1
y[2,4]=1
y[3,2]=1
y[4,2]=1
q[0,0,2]=957.5
q[0,1,1]=928.0
q[0,1,3]=877.0
q[0,1,4]=179.25
q[0,1,5]=418.25
q[1,0,1]=1008.0
q[1,0,2]=50.5
q[1,0,3]=1680.0
q[1,2,3]=611.0
q[1,2,4]=325.5
q[2,1,2]=1392.0
q[2,1,3]=1443.0
q[2,1,4]=168.75
q[2,1,5]=393.75
q[2,3,3]=1725.0
q[2,3,4]=258.75
q[2,3,5]=603.75
q[2,3,6]=172.5
q[2,4,7]=112.5
q[3,2,3]=2010.0
q[3,2,4]=201.0
q[4,2,2]=1053.0
q[4,2,3]=889.0
r[0,1]=448.0
r[0,2]=1312.0
r[0,3]=1474.5
r[0,4]=597.5
r[0,5]=418.25
r[1,2]=392.0
r[1,3]=1391.5
r[1,4]=325.5
r[2,3]=318.0
r[2,7]=112.5
r[4,1]=1942.0
r[4,2]=1942.0
r[4,3]=889.0
